50
1 0 35
2 0 3
2 1 45
3 0 17
3 1 22
3 2 51
4 0 47
4 1 28
4 2 50
4 3 11
5 0 37
5 1 31
5 2 17
5 3 26
5 4 12
6 0 19
6 1 32
6 2 57
6 3 18
6 4 42
6 5 31
7 0 43
7 1 7
7 2 59
7 3 30
7 4 36
7 5 29
7 6 12
8 0 25
8 1 54
8 2 2
8 3 3
8 4 10
8 5 15
8 6 30
8 7 45
9 0 32
9 1 5
9 2 47
9 3 58
9 4 24
9 5 29
9 6 44
9 7 60
9 8 24
10 0 52
10 1 41
10 2 29
10 3 53
10 4 51
10 5 7
10 6 29
10 7 10
10 8 22
10 9 4
11 0 48
11 1 25
11 2 48
11 3 15
11 4 36
11 5 24
11 6 42
11 7 45
11 8 2
11 9 4
11 10 25
12 0 57
12 1 9
12 2 54
12 3 37
12 4 3
12 5 28
12 6 10
12 7 36
12 8 17
12 9 55
12 10 45
12 11 51
13 0 40
13 1 2
13 2 3
13 3 12
13 4 55
13 5 41
13 6 13
13 7 36
13 8 2
13 9 34
13 10 44
13 11 25
13 12 13
14 0 21
14 1 57
14 2 36
14 3 43
14 4 19
14 5 18
14 6 15
14 7 24
14 8 32
14 9 6
14 10 25
14 11 9
14 12 18
14 13 19
15 0 10
15 1 34
15 2 10
15 3 40
15 4 15
15 5 24
15 6 50
15 7 50
15 8 49
15 9 50
15 10 42
15 11 47
15 12 6
15 13 22
15 14 55
16 0 27
16 1 4
16 2 11
16 3 13
16 4 14
16 5 21
16 6 56
16 7 47
16 8 60
16 9 57
16 10 34
16 11 6
16 12 49
16 13 39
16 14 36
16 15 20
17 0 16
17 1 60
17 2 43
17 3 50
17 4 10
17 5 22
17 6 2
17 7 46
17 8 20
17 9 28
17 10 2
17 11 4
17 12 14
17 13 14
17 14 7
17 15 59
17 16 1
18 0 60
18 1 24
18 2 3
18 3 12
18 4 32
18 5 58
18 6 19
18 7 50
18 8 5
18 9 1
18 10 12
18 11 10
18 12 37
18 13 18
18 14 58
18 15 2
18 16 3
18 17 60
19 0 2
19 1 17
19 2 53
19 3 53
19 4 40
19 5 21
19 6 48
19 7 17
19 8 23
19 9 34
19 10 58
19 11 26
19 12 21
19 13 41
19 14 5
19 15 3
19 16 45
19 17 6
19 18 37
20 0 19
20 1 43
20 2 22
20 3 33
20 4 30
20 5 8
20 6 10
20 7 41
20 8 58
20 9 54
20 10 43
20 11 17
20 12 19
20 13 55
20 14 33
20 15 43
20 16 59
20 17 15
20 18 52
20 19 10
21 0 16
21 1 11
21 2 50
21 3 45
21 4 54
21 5 52
21 6 55
21 7 38
21 8 35
21 9 10
21 10 49
21 11 44
21 12 50
21 13 31
21 14 34
21 15 26
21 16 30
21 17 11
21 18 2
21 19 7
21 20 29
22 0 10
22 1 51
22 2 38
22 3 33
22 4 31
22 5 22
22 6 58
22 7 21
22 8 56
22 9 23
22 10 35
22 11 2
22 12 54
22 13 36
22 14 26
22 15 5
22 16 41
22 17 55
22 18 22
22 19 10
22 20 60
22 21 21
23 0 41
23 1 6
23 2 3
23 3 7
23 4 55
23 5 29
23 6 24
23 7 44
23 8 2
23 9 23
23 10 58
23 11 46
23 12 48
23 13 60
23 14 39
23 15 21
23 16 48
23 17 30
23 18 50
23 19 22
23 20 41
23 21 22
23 22 44
24 0 16
24 1 10
24 2 48
24 3 4
24 4 49
24 5 16
24 6 3
24 7 41
24 8 8
24 9 44
24 10 52
24 11 11
24 12 49
24 13 14
24 14 25
24 15 37
24 16 14
24 17 22
24 18 10
24 19 37
24 20 7
24 21 18
24 22 44
24 23 52
25 0 52
25 1 24
25 2 46
25 3 38
25 4 36
25 5 29
25 6 14
25 7 34
25 8 33
25 9 17
25 10 36
25 11 17
25 12 19
25 13 33
25 14 2
25 15 19
25 16 30
25 17 39
25 18 29
25 19 23
25 20 4
25 21 30
25 22 7
25 23 15
25 24 3
26 0 37
26 1 45
26 2 22
26 3 10
26 4 14
26 5 5
26 6 18
26 7 21
26 8 48
26 9 49
26 10 30
26 11 41
26 12 26
26 13 10
26 14 54
26 15 49
26 16 17
26 17 9
26 18 38
26 19 55
26 20 31
26 21 49
26 22 34
26 23 4
26 24 30
26 25 13
27 0 29
27 1 15
27 2 41
27 3 40
27 4 17
27 5 34
27 6 56
27 7 55
27 8 28
27 9 16
27 10 20
27 11 60
27 12 38
27 13 42
27 14 49
27 15 57
27 16 57
27 17 22
27 18 16
27 19 39
27 20 40
27 21 33
27 22 39
27 23 38
27 24 13
27 25 24
27 26 27
28 0 26
28 1 35
28 2 8
28 3 36
28 4 44
28 5 41
28 6 5
28 7 30
28 8 49
28 9 9
28 10 27
28 11 54
28 12 37
28 13 54
28 14 16
28 15 43
28 16 26
28 17 57
28 18 44
28 19 1
28 20 31
28 21 50
28 22 56
28 23 53
28 24 35
28 25 15
28 26 44
28 27 48
29 0 11
29 1 56
29 2 13
29 3 35
29 4 37
29 5 54
29 6 9
29 7 27
29 8 30
29 9 25
29 10 3
29 11 17
29 12 27
29 13 39
29 14 5
29 15 30
29 16 29
29 17 23
29 18 50
29 19 55
29 20 48
29 21 40
29 22 35
29 23 32
29 24 25
29 25 8
29 26 42
29 27 18
29 28 38
30 0 20
30 1 15
30 2 58
30 3 16
30 4 19
30 5 56
30 6 58
30 7 18
30 8 17
30 9 2
30 10 34
30 11 8
30 12 17
30 13 53
30 14 56
30 15 54
30 16 50
30 17 58
30 18 58
30 19 10
30 20 19
30 21 58
30 22 44
30 23 21
30 24 27
30 25 4
30 26 2
30 27 24
30 28 1
30 29 21
31 0 30
31 1 40
31 2 49
31 3 17
31 4 11
31 5 5
31 6 30
31 7 34
31 8 23
31 9 54
31 10 46
31 11 37
31 12 28
31 13 54
31 14 54
31 15 49
31 16 47
31 17 23
31 18 54
31 19 5
31 20 46
31 21 48
31 22 33
31 23 21
31 24 8
31 25 34
31 26 7
31 27 9
31 28 35
31 29 33
31 30 35
32 0 22
32 1 25
32 2 9
32 3 42
32 4 47
32 5 2
32 6 59
32 7 7
32 8 2
32 9 13
32 10 51
32 11 25
32 12 4
32 13 32
32 14 2
32 15 52
32 16 9
32 17 33
32 18 29
32 19 8
32 20 24
32 21 27
32 22 18
32 23 25
32 24 45
32 25 11
32 26 37
32 27 30
32 28 18
32 29 35
32 30 37
32 31 53
33 0 25
33 1 46
33 2 32
33 3 1
33 4 47
33 5 45
33 6 53
33 7 9
33 8 36
33 9 25
33 10 52
33 11 20
33 12 16
33 13 55
33 14 10
33 15 39
33 16 35
33 17 12
33 18 24
33 19 50
33 20 9
33 21 34
33 22 56
33 23 35
33 24 28
33 25 57
33 26 41
33 27 25
33 28 55
33 29 42
33 30 28
33 31 46
33 32 47
34 0 60
34 1 44
34 2 46
34 3 51
34 4 58
34 5 40
34 6 56
34 7 9
34 8 24
34 9 29
34 10 31
34 11 14
34 12 27
34 13 46
34 14 29
34 15 34
34 16 53
34 17 33
34 18 7
34 19 20
34 20 35
34 21 33
34 22 58
34 23 40
34 24 22
34 25 28
34 26 33
34 27 45
34 28 40
34 29 32
34 30 51
34 31 46
34 32 11
34 33 25
35 0 45
35 1 30
35 2 41
35 3 35
35 4 56
35 5 47
35 6 53
35 7 24
35 8 48
35 9 32
35 10 35
35 11 31
35 12 17
35 13 49
35 14 50
35 15 47
35 16 57
35 17 5
35 18 47
35 19 7
35 20 38
35 21 53
35 22 13
35 23 31
35 24 21
35 25 16
35 26 20
35 27 6
35 28 19
35 29 5
35 30 56
35 31 33
35 32 31
35 33 35
35 34 12
36 0 39
36 1 48
36 2 2
36 3 54
36 4 52
36 5 43
36 6 41
36 7 14
36 8 45
36 9 34
36 10 40
36 11 15
36 12 56
36 13 59
36 14 5
36 15 11
36 16 5
36 17 43
36 18 19
36 19 58
36 20 40
36 21 54
36 22 7
36 23 27
36 24 51
36 25 57
36 26 16
36 27 17
36 28 39
36 29 16
36 30 42
36 31 58
36 32 4
36 33 8
36 34 24
36 35 35
37 0 8
37 1 27
37 2 31
37 3 44
37 4 47
37 5 18
37 6 28
37 7 15
37 8 9
37 9 27
37 10 58
37 11 24
37 12 46
37 13 19
37 14 21
37 15 43
37 16 25
37 17 56
37 18 29
37 19 38
37 20 10
37 21 57
37 22 5
37 23 38
37 24 20
37 25 48
37 26 38
37 27 32
37 28 38
37 29 30
37 30 44
37 31 13
37 32 51
37 33 41
37 34 40
37 35 44
37 36 25
38 0 53
38 1 59
38 2 43
38 3 20
38 4 7
38 5 43
38 6 39
38 7 46
38 8 25
38 9 53
38 10 5
38 11 23
38 12 38
38 13 30
38 14 18
38 15 34
38 16 52
38 17 57
38 18 37
38 19 39
38 20 19
38 21 43
38 22 26
38 23 9
38 24 16
38 25 34
38 26 60
38 27 25
38 28 34
38 29 55
38 30 6
38 31 16
38 32 1
38 33 53
38 34 17
38 35 30
38 36 11
38 37 7
39 0 30
39 1 25
39 2 45
39 3 44
39 4 7
39 5 41
39 6 34
39 7 41
39 8 29
39 9 8
39 10 30
39 11 18
39 12 2
39 13 28
39 14 27
39 15 13
39 16 5
39 17 46
39 18 32
39 19 38
39 20 2
39 21 31
39 22 37
39 23 37
39 24 47
39 25 14
39 26 35
39 27 60
39 28 8
39 29 16
39 30 7
39 31 5
39 32 58
39 33 7
39 34 47
39 35 7
39 36 11
39 37 19
39 38 37
40 0 20
40 1 50
40 2 55
40 3 51
40 4 2
40 5 45
40 6 56
40 7 3
40 8 49
40 9 43
40 10 31
40 11 5
40 12 12
40 13 14
40 14 21
40 15 32
40 16 5
40 17 50
40 18 51
40 19 38
40 20 53
40 21 2
40 22 10
40 23 41
40 24 7
40 25 14
40 26 49
40 27 32
40 28 56
40 29 56
40 30 37
40 31 52
40 32 55
40 33 27
40 34 18
40 35 56
40 36 55
40 37 35
40 38 53
40 39 11
41 0 58
41 1 17
41 2 35
41 3 11
41 4 27
41 5 10
41 6 11
41 7 16
41 8 2
41 9 10
41 10 43
41 11 12
41 12 6
41 13 7
41 14 7
41 15 43
41 16 44
41 17 41
41 18 19
41 19 33
41 20 19
41 21 9
41 22 37
41 23 32
41 24 29
41 25 51
41 26 27
41 27 46
41 28 57
41 29 16
41 30 9
41 31 1
41 32 19
41 33 20
41 34 48
41 35 35
41 36 1
41 37 2
41 38 42
41 39 46
41 40 58
42 0 35
42 1 55
42 2 15
42 3 43
42 4 52
42 5 49
42 6 9
42 7 48
42 8 48
42 9 49
42 10 46
42 11 54
42 12 39
42 13 28
42 14 49
42 15 5
42 16 48
42 17 44
42 18 17
42 19 50
42 20 16
42 21 7
42 22 41
42 23 6
42 24 57
42 25 2
42 26 25
42 27 13
42 28 33
42 29 23
42 30 58
42 31 36
42 32 37
42 33 24
42 34 36
42 35 39
42 36 2
42 37 7
42 38 51
42 39 1
42 40 59
42 41 12
43 0 25
43 1 22
43 2 15
43 3 53
43 4 53
43 5 10
43 6 20
43 7 2
43 8 10
43 9 20
43 10 47
43 11 60
43 12 13
43 13 32
43 14 36
43 15 33
43 16 2
43 17 35
43 18 49
43 19 60
43 20 43
43 21 11
43 22 26
43 23 24
43 24 47
43 25 5
43 26 27
43 27 28
43 28 30
43 29 16
43 30 32
43 31 30
43 32 60
43 33 42
43 34 36
43 35 28
43 36 41
43 37 58
43 38 33
43 39 16
43 40 46
43 41 39
43 42 35
44 0 19
44 1 31
44 2 17
44 3 10
44 4 29
44 5 59
44 6 14
44 7 17
44 8 54
44 9 36
44 10 4
44 11 49
44 12 52
44 13 60
44 14 56
44 15 3
44 16 19
44 17 36
44 18 3
44 19 33
44 20 16
44 21 6
44 22 43
44 23 9
44 24 14
44 25 56
44 26 59
44 27 32
44 28 45
44 29 7
44 30 57
44 31 57
44 32 18
44 33 6
44 34 47
44 35 41
44 36 12
44 37 53
44 38 16
44 39 37
44 40 30
44 41 55
44 42 58
44 43 57
45 0 48
45 1 1
45 2 8
45 3 42
45 4 31
45 5 16
45 6 52
45 7 50
45 8 2
45 9 21
45 10 25
45 11 1
45 12 51
45 13 60
45 14 15
45 15 21
45 16 34
45 17 40
45 18 38
45 19 33
45 20 15
45 21 12
45 22 42
45 23 23
45 24 43
45 25 21
45 26 11
45 27 37
45 28 41
45 29 34
45 30 24
45 31 26
45 32 45
45 33 2
45 34 10
45 35 7
45 36 41
45 37 15
45 38 40
45 39 44
45 40 40
45 41 17
45 42 23
45 43 55
45 44 13
46 0 48
46 1 54
46 2 52
46 3 2
46 4 21
46 5 50
46 6 23
46 7 59
46 8 31
46 9 22
46 10 33
46 11 7
46 12 52
46 13 16
46 14 8
46 15 11
46 16 56
46 17 9
46 18 8
46 19 7
46 20 38
46 21 25
46 22 48
46 23 40
46 24 43
46 25 11
46 26 10
46 27 48
46 28 20
46 29 14
46 30 3
46 31 46
46 32 40
46 33 28
46 34 39
46 35 2
46 36 24
46 37 46
46 38 41
46 39 14
46 40 12
46 41 4
46 42 24
46 43 55
46 44 44
46 45 1
47 0 57
47 1 58
47 2 50
47 3 37
47 4 5
47 5 40
47 6 40
47 7 33
47 8 54
47 9 57
47 10 16
47 11 27
47 12 25
47 13 14
47 14 38
47 15 58
47 16 60
47 17 54
47 18 21
47 19 19
47 20 57
47 21 33
47 22 14
47 23 10
47 24 46
47 25 3
47 26 44
47 27 36
47 28 2
47 29 32
47 30 56
47 31 35
47 32 43
47 33 43
47 34 23
47 35 14
47 36 27
47 37 53
47 38 9
47 39 58
47 40 11
47 41 1
47 42 45
47 43 6
47 44 7
47 45 20
47 46 1
48 0 24
48 1 43
48 2 24
48 3 50
48 4 3
48 5 32
48 6 54
48 7 28
48 8 42
48 9 3
48 10 13
48 11 51
48 12 35
48 13 19
48 14 40
48 15 5
48 16 3
48 17 49
48 18 9
48 19 56
48 20 53
48 21 20
48 22 21
48 23 13
48 24 11
48 25 53
48 26 46
48 27 16
48 28 48
48 29 5
48 30 26
48 31 50
48 32 35
48 33 16
48 34 48
48 35 17
48 36 56
48 37 38
48 38 18
48 39 42
48 40 20
48 41 49
48 42 38
48 43 27
48 44 51
48 45 48
48 46 41
48 47 18
49 0 1
49 1 19
49 2 32
49 3 57
49 4 20
49 5 49
49 6 12
49 7 58
49 8 15
49 9 37
49 10 58
49 11 58
49 12 42
49 13 18
49 14 18
49 15 57
49 16 12
49 17 56
49 18 52
49 19 58
49 20 18
49 21 50
49 22 9
49 23 32
49 24 47
49 25 14
49 26 45
49 27 29
49 28 56
49 29 36
49 30 60
49 31 6
49 32 52
49 33 53
49 34 56
49 35 57
49 36 33
49 37 43
49 38 30
49 39 24
49 40 9
49 41 19
49 42 36
49 43 4
49 44 48
49 45 47
49 46 26
49 47 32
49 48 58
